dates = {'2022-08-31','2022-09-01','2022-09-02','2022-09-03','2022-09-04','2022-09-05','2022-09-06','2022-09-07','2022-09-08','2022-09-09','2022-09-10','2022-09-11','2022-09-12','2022-09-13','2022-09-14','2022-09-15','2022-09-16','2022-09-17','2022-09-18','2022-09-19','2022-09-20','2022-09-21','2022-09-22','2022-09-23','2022-09-24','2022-09-25','2022-09-26','2022-09-27','2022-09-28','2022-09-29'};

daysOfWeek = [Wednesday,Thursday,Friday,Saturday,Sunday,Monday,Tuesday,Wednesday,Thursday,Friday,Saturday,Sunday,Monday,Tuesday,Wednesday,Thursday,Friday,Saturday,Sunday,Monday,Tuesday,Wednesday,Thursday,Friday,Saturday,Sunday,Monday,Tuesday,Wednesday,Thursday];

% For this week, how many people will be here.
numPeople = [25,25,25,25,25,25,25,25,25,25,25,25,25,25,25,25,25,25,25,25,25,25,25,25
,25,25,25,25,25,25];

% Physical workers need 50 to 100 % more nutrients per day.
numPhysicalWorkers = [13.0,13.0,13.0,13.0,13.0,13.0,13.0,13.0,13.0,13.0,13.0,13.0,13.0,13.0,13.0,13.0,13.0,13.0
,13.0,13.0,13.0,13.0,13.0,13.0,13.0,13.0,13.0,13.0,13.0,13.0];

% Males need +25% more nutrients per day.
numMen = [19,19,19,19,19,19,19,19,19,19,19,19,19,19,19,19,19,19,19,19,19,19,19,19
,19,19,19,19,19,19];

% Num people who do not eat categories. contains = {none, meat, milk, gluten, egg, nut, seed, sugars}
numRefusals = [| 0,0,1,0,0,0,2,4 | 0,0,1,0,0,0,2,4 | 0,0,1,0,0,0,2,4 | 0,0,1,0,0,0,2,4 | 0,0,1,0,0,0,2,4 | 0,0,1,0,0,0,2,4 | 0,0,1,0,0,0,2,4 | 0,0,1,0,0,0,2,4 | 0,0,1,0,0,0,2,4 | 0,0,1,0,0,0,2,4 | 0,0,1,0,0,0,2,4 | 0,0,1,0,0,0,2,4 | 0,0,1,0,0,0,2,4 | 0,0,1,0,0,0,2,4 | 0,0,1,0,0,0,2,4 | 0,0,1,0,0,0,2,4 | 0,0,1,0,0,0,2,4 | 0,0,1,0,0,0,2,4 | 0,0,1,0,0,0,2,4 | 0,0,1,0,0,0,2,4 | 0,0,1,0,0,0,2,4 | 0,0,1,0,0,0,2,4 | 0,0,1,0,0,0,2,4 | 0,0,1,0,0,0,2,4 | 0,0,1,0,0,0,2,4 | 0,0,1,0,0,0,2,4 | 0,0,1,0,0,0,2,4 | 0,0,1,0,0,0,2,4 | 0,0,1,0,0,0,2,4 | 0,0,1,0,0,0,2,4 |];

